\ENCODING=ISO-8859-1
\Problem name: CompactDef

Maximize
 obj: 13.0434782608696 PathValue1 + 13.0434782608696 PathValue2
      + 4.34782608695652 PathValue3 + 13.0434782608696 PathValue4
      + 13.0434782608696 PathValue5 + 13.0434782608696 PathValue6
      + 13.0434782608696 PathValue7 + 13.0434782608696 PathValue8
      + 13.0434782608696 PathValue9 + 13.0434782608696 PathValue10
      + 4.34782608695652 PathValue11 + 13.0434782608696 PathValue12
      + 13.0434782608696 PathValue13 + 8.69565217391304 PathValue14
      + 13.0434782608696 PathValue15 + 13.0434782608696 PathValue16
      + 13.0434782608696 PathValue17 + 13.0434782608696 PathValue18
      + 13.0434782608696 PathValue19 + 13.0434782608696 PathValue20
      + 4.34782608695652 PathValue21 + 4.34782608695652 PathValue22
      + 8.69565217391304 PathValue23
Subject To
 SumResources: PathValue1 + PathValue2 + PathValue3 + PathValue4 + PathValue5
               + PathValue6 + PathValue7 + PathValue8 + PathValue9
               + PathValue10 + PathValue11 + PathValue12 + PathValue13
               + PathValue14 + PathValue15 + PathValue16 + PathValue17
               + PathValue18 + PathValue19 + PathValue20 + PathValue21
               + PathValue22 + PathValue23  = 3
Bounds
 0 <= PathValue1 <= 1
 0 <= PathValue2 <= 1
 0 <= PathValue3 <= 1
 0 <= PathValue4 <= 1
 0 <= PathValue5 <= 1
 0 <= PathValue6 <= 1
 0 <= PathValue7 <= 1
 0 <= PathValue8 <= 1
 0 <= PathValue9 <= 1
 0 <= PathValue10 <= 1
 0 <= PathValue11 <= 1
 0 <= PathValue12 <= 1
 0 <= PathValue13 <= 1
 0 <= PathValue14 <= 1
 0 <= PathValue15 <= 1
 0 <= PathValue16 <= 1
 0 <= PathValue17 <= 1
 0 <= PathValue18 <= 1
 0 <= PathValue19 <= 1
 0 <= PathValue20 <= 1
 0 <= PathValue21 <= 1
 0 <= PathValue22 <= 1
 0 <= PathValue23 <= 1
End
